clingo version 5.4.0
Reading from clingo\rna_ss_prediction_E1.lp
Solving...
Answer: 1
seq(1,a) seq(2,c) seq(3,c) seq(4,g) seq(5,u) seq(6,a) pairing(1,5) pairing(5,1) pairing(2,4) pairing(4,2) contacts(4) energy1(400)
Optimization: -400
OPTIMUM FOUND

Models       : 1
  Optimum    : yes
Optimization : -400
Calls        : 1
Time         : 0.008s (Solving: 0.00s 1st Model: 0.00s Unsat: 0.00s)
CPU Time     : 0.016s